WARNING: for repeatability, setting FPU to use double precision
============================[ Problem Statistics ]=============================
|                                                                             |
|  Number of symmetries:          29                                          |
|  Number of invertingSyms:        0                                          |
|  Number of variables:           240                                         |
|  Number of clauses:            1816                                         |
|  Parse time:                   0.00 s                                       |
|                                                                             |
============================[ Search Statistics ]==============================
| Conflicts |          ORIGINAL         |          LEARNT          | Progress |
|           |    Vars  Clauses Literals |    Limit  Clauses Lit/Cl |          |
===============================================================================
|       100 |     240     1816     3840 |      665      100    104 |  0.002 % |
|       250 |     240     1816     3840 |      732      250     70 |  0.002 % |
|       475 |     240     1816     3840 |      805      475     62 |  0.002 % |
|       812 |     240     1816     3840 |      886      812     60 |  0.002 % |
|      1318 |     240     1816     3840 |      974      777     54 |  0.002 % |
|      2077 |     240     1816     3840 |     1072     1003     54 |  0.002 % |
|      3216 |     240     1816     3840 |     1179      864     70 |  0.002 % |
|      4924 |     240     1816     3840 |     1297      638     54 |  0.002 % |
|      7486 |     240     1816     3840 |     1427     1100     82 |  0.002 % |
|     11330 |     240     1816     3840 |     1570     1112     83 |  0.002 % |
|     17096 |     240     1816     3840 |     1727     1020     98 |  0.002 % |
|     25745 |     240     1816     3840 |     1899     1441     95 |  0.002 % |
|     38719 |     240     1816     3840 |     2089     1453     95 |  0.002 % |
|     58180 |     240     1816     3840 |     2298     1235     95 |  0.002 % |
|     87372 |     240     1816     3840 |     2528     1469     94 |  0.002 % |
|    131161 |     240     1816     3840 |     2781     1884     93 |  0.002 % |
|    196845 |     240     1816     3840 |     3059     2416     87 |  0.002 % |
|    295371 |     240     1816     3840 |     3365     2168     92 |  0.002 % |
|    443160 |     240     1816     3840 |     3702     3430     99 |  0.002 % |
|    664843 |     240     1816     3840 |     4072     3385     92 |  0.002 % |
|    997368 |     240     1816     3840 |     4479     2943     97 |  0.002 % |
|   1496156 |     240     1816     3840 |     4927     4555     93 |  0.002 % |
|   2244338 |     240     1816     3840 |     5420     3113    102 |  0.002 % |
|   3366612 |     240     1816     3840 |     5962     4019     95 |  0.002 % |
|   5050023 |     240     1816     3840 |     6558     5437     91 |  0.002 % |
|   7575139 |     240     1816     3840 |     7214     3514     81 |  0.002 % |
|  11362814 |     240     1816     3840 |     7935     6353     74 |  0.002 % |
|  17044326 |     240     1816     3840 |     8729     6639     95 |  0.002 % |
|  25566595 |     240     1816     3840 |     9602     7380     95 |  0.002 % |
|  38349998 |     240     1816     3840 |    10562     7350     97 |  0.002 % |
|  57525103 |     240     1816     3840 |    11618     6248     88 |  0.002 % |
|  86287761 |     240     1816     3840 |    12780     7744     94 |  0.002 % |
===============================================================================
restarts              : 123827
conflicts             : 94308033       (18549 /sec)
symconflicts          : 10581363       (2081 /sec)
decisions             : 151093529      (0.00 % random) (29719 /sec)
propagations          : 1767102542     (347571 /sec)
sympropagations       : 47701697       (9382 /sec)
conflict literals     : 8972625171     (8.12 % deleted)
Memory used           : 58.00 MB
CPU time              : 5084.15 s

INDETERMINATE
